TOUR_SECTION
134
149
138
5
155
161
101
4
75
27
6
1
103
158
173
177
45
76
106
140
68
36
186
53
127
83
57
102
9
20
124
99
38
198
136
185
56
18
97
160
194
151
63
116
105
165
82
195
71
110
8
118
69
184
122
183
95
169
117
163
96
58
119
84
93
32
168
114
89
44
121
60
193
166
35
33
104
131
49
187
107
137
7
61
153
139
157
25
37
3
164
146
86
150
174
70
188
200
41
72
115
128
148
144
78
12
23
85
48
196
123
113
94
19
34
159
22
51
154
182
11
100
15
30
112
197
142
64
13
191
16
181
43
10
199
98
172
26
55
176
126
170
130
175
147
88
2
67
17
125
129
80
141
21
50
111
40
28
156
52
92
73
189
109
77
46
59
132
74
145
179
180
87
162
42
167
133
31
120
29
39
108
192
54
24
62
14
135
79
65
171
90
152
81
47
190
178
91
66
143
-1
EOF